networks/zoo_44_102/zoo_44_102-lower.sol
<?xml version = "1.0" encoding="UTF-8" standalone="yes"?>
<CPLEXSolution version="1.2">
 <header
   problemName="networks/zoo_44_102/zoo_44_102-lower.lp"
   solutionName="incumbent"
   solutionIndex="-1"
   objectiveValue="12"
   solutionTypeValue="3"
   solutionTypeString="primal"
   solutionStatusValue="101"
   solutionStatusString="integer optimal solution"
   solutionMethodString="mip"
   primalFeasible="1"
   dualFeasible="1"
   MIPNodes="0"
   MIPIterations="0"
   writeLevel="3"/>
 <quality
   epInt="1.0000000000000001e-05"
   epRHS="9.9999999999999995e-07"
   maxIntInfeas="0"
   maxPrimalInfeas="0"
   maxX="1"
   maxSlack="1"/>
 <variables>
  <variable name="Y(1,9)" index="7" value="1"/>
  <variable name="Y(2,21)" index="53" value="1"/>
  <variable name="Y(3,1)" index="68" value="1"/>
  <variable name="Y(5,13)" index="147" value="1"/>
  <variable name="Y(6,14)" index="182" value="1"/>
  <variable name="Y(7,16)" index="218" value="1"/>
  <variable name="Y(8,18)" index="254" value="1"/>
  <variable name="Y(9,19)" index="289" value="1"/>
  <variable name="Y(10,20)" index="324" value="1"/>
  <variable name="Y(20,2)" index="647" value="1"/>
  <variable name="Y(31,4)" index="1023" value="1"/>
  <variable name="Y(32,12)" index="1064" value="1"/>
  <variable name="X(1,2,1)" index="3468" value="1"/>
  <variable name="X(1,4,2)" index="3571" value="1"/>
  <variable name="X(1,24,3)" index="3674" value="1"/>
  <variable name="X(2,1,3)" index="3776" value="1"/>
  <variable name="X(2,7,1)" index="3876" value="1"/>
  <variable name="X(2,25,20)" index="3997" value="1"/>
  <variable name="X(3,4,12)" index="4091" value="1"/>
  <variable name="X(3,22,2)" index="4183" value="1"/>
  <variable name="X(4,1,12)" index="4295" value="1"/>
  <variable name="X(4,3,2)" index="4387" value="1"/>
  <variable name="X(4,27,31)" index="4518" value="1"/>
  <variable name="X(6,8,19)" index="4608" value="1"/>
  <variable name="X(6,9,1)" index="4692" value="1"/>
  <variable name="X(7,2,19)" index="4812" value="1"/>
  <variable name="X(7,8,1)" index="4896" value="1"/>
  <variable name="X(8,6,1)" index="4998" value="1"/>
  <variable name="X(8,7,19)" index="5118" value="1"/>
  <variable name="X(9,6,29)" index="5230" value="1"/>
  <variable name="X(9,10,5)" index="5308" value="1"/>
  <variable name="X(9,12,32)" index="5437" value="1"/>
  <variable name="X(9,32,1)" index="5508" value="1"/>
  <variable name="X(10,9,40)" index="5649" value="1"/>
  <variable name="X(10,13,5)" index="5716" value="1"/>
  <variable name="X(11,9,46)" index="5859" value="1"/>
  <variable name="X(12,9,48)" index="5963" value="1"/>
  <variable name="X(12,35,32)" index="6049" value="1"/>
  <variable name="X(13,10,50)" index="6169" value="1"/>
  <variable name="X(13,15,6)" index="6227" value="1"/>
  <variable name="X(13,36,5)" index="6328" value="1"/>
  <variable name="X(14,15,57)" index="6482" value="1"/>
  <variable name="X(14,23,24)" index="6551" value="1"/>
  <variable name="X(14,37,6)" index="6635" value="1"/>
  <variable name="X(15,13,57)" index="6788" value="1"/>
  <variable name="X(15,14,6)" index="6839" value="1"/>
  <variable name="X(16,17,25)" index="6960" value="1"/>
  <variable name="X(16,23,14)" index="7051" value="1"/>
  <variable name="X(16,39,7)" index="7146" value="1"/>
  <variable name="X(17,16,7)" index="7248" value="1"/>
  <variable name="X(17,18,25)" index="7368" value="1"/>
  <variable name="X(18,17,7)" index="7452" value="1"/>
  <variable name="X(18,19,37)" index="7584" value="1"/>
  <variable name="X(18,41,8)" index="7657" value="1"/>
  <variable name="X(19,18,7)" index="7758" value="1"/>
  <variable name="X(19,21,45)" index="7898" value="1"/>
  <variable name="X(19,42,9)" index="7964" value="1"/>
  <variable name="X(20,21,88)" index="8145" value="1"/>
  <variable name="X(20,22,86)" index="8245" value="1"/>
  <variable name="X(20,43,10)" index="8271" value="1"/>
  <variable name="X(21,19,7)" index="8370" value="1"/>
  <variable name="X(21,20,55)" index="8520" value="1"/>
  <variable name="X(21,22,62)" index="8629" value="1"/>
  <variable name="X(21,44,2)" index="8671" value="1"/>
  <variable name="X(22,3,62)" index="8833" value="1"/>
  <variable name="X(22,20,10)" index="8883" value="1"/>
  <variable name="X(22,21,2)" index="8977" value="1"/>
  <variable name="X(23,14,14)" index="9091" value="1"/>
  <variable name="X(23,16,24)" index="9203" value="1"/>
 </variables>
</CPLEXSolution>
